benchmarks/crosswords/mzn/crossword3_41.ozn
output ([(((("\n"++problem_name)++"\n")++"L:")++show(L))++"\n"]++[if problem[i,j]==0 then "*" else show(letters[fix(L[problem[i,j]])]) endif++if j==cols then "\n" else "" endif | i in 1..rows, j in 1..cols, ])++["\n"];
int: rows = 23;
int: cols = 23;
array [1..rows,1..cols] of int: problem = [|1,2,3,4,5,0,6,7,8,9,0,10,11,12,13,14,0,15,16,17,18,19,0|20,21,22,23,24,0,25,26,27,28,0,29,30,31,32,33,0,34,35,36,37,38,39|40,41,42,43,44,45,46,47,48,49,0,50,51,52,53,54,55,56,57,58,59,60,61|62,63,64,0,0,65,66,67,68,69,70,71,72,73,0,74,75,76,77,0,78,79,80|81,82,83,84,85,86,87,0,0,88,89,90,91,0,92,93,94,95,0,96,97,98,99|0,0,0,100,101,102,0,103,104,105,106,0,0,107,108,109,0,0,110,111,112,113,114|115,116,117,118,119,0,120,121,122,123,0,124,125,126,127,0,128,129,130,131,0,0,0|132,133,134,135,0,136,137,138,139,140,0,141,142,143,144,0,145,146,147,148,149,150,151|152,153,154,155,0,156,157,158,159,0,160,161,162,0,163,164,165,166,167,0,168,169,170|171,172,173,0,174,175,176,177,0,178,179,180,181,0,182,183,184,185,0,186,187,188,189|0,0,190,191,192,193,194,0,195,196,197,198,0,199,200,201,202,0,203,204,205,206,207|208,209,210,211,212,213,214,0,215,216,217,218,219,220,221,0,222,223,224,225,226,227,228|229,230,231,232,233,0,234,235,236,237,0,238,239,240,241,0,242,243,244,245,246,0,0|247,248,249,250,0,251,252,253,254,0,255,256,257,258,0,259,260,261,262,0,263,264,265|266,267,268,0,269,270,271,272,273,0,274,275,276,0,277,278,279,280,0,281,282,283,284|285,286,287,288,289,290,291,0,292,293,294,295,0,296,297,298,299,300,0,301,302,303,304|0,0,0,305,306,307,308,0,309,310,311,312,0,313,314,315,316,0,317,318,319,320,321|322,323,324,325,326,0,0,327,328,329,0,0,330,331,332,333,0,334,335,336,0,0,0|337,338,339,340,0,341,342,343,344,0,345,346,347,348,0,0,349,350,351,352,353,354,355|356,357,358,0,359,360,361,362,0,363,364,365,366,367,368,369,370,371,0,0,372,373,374|375,376,377,378,379,380,381,382,383,384,385,386,0,387,388,389,390,391,392,393,394,395,396|397,398,399,400,401,402,0,403,404,405,406,407,0,408,409,410,411,0,412,413,414,415,416|0,417,418,419,420,421,0,422,423,424,425,426,0,427,428,429,430,0,431,432,433,434,435|];
int: num_letters = 26;
array [1..num_letters] of string: letters = ["a","b","c","d","e","f","g","h","i","j","k","l","m","n","o","p","q","r","s","t","u","v","w","x","y","z"];
int: N = 435;
array [0..N] of int: L;
string: problem_name = "23.02, 23 x 23";
