benchmarks/crosswords/mzn/crossword3_41.res
REGULAR
REGULAR
REGULAR
REGULAR
REGULAR
REGULAR
REGULAR
REGULAR
REGULAR
REGULAR
REGULAR
REGULAR
REGULAR
REGULAR
REGULAR
REGULAR
REGULAR
REGULAR
REGULAR
REGULAR
REGULAR
REGULAR
REGULAR
REGULAR
REGULAR
REGULAR
REGULAR
REGULAR
REGULAR
REGULAR
REGULAR
REGULAR
REGULAR
REGULAR
REGULAR
REGULAR
REGULAR
REGULAR
REGULAR
REGULAR
REGULAR
REGULAR
REGULAR
REGULAR
REGULAR
REGULAR
REGULAR
REGULAR
REGULAR
REGULAR
REGULAR
REGULAR
REGULAR
REGULAR
REGULAR
REGULAR
REGULAR
REGULAR
REGULAR
REGULAR
REGULAR
REGULAR
REGULAR
REGULAR
REGULAR
REGULAR
REGULAR
REGULAR
REGULAR
REGULAR
REGULAR
REGULAR
REGULAR
REGULAR
REGULAR
REGULAR
REGULAR
REGULAR
REGULAR
REGULAR
REGULAR
REGULAR
REGULAR
REGULAR
REGULAR
REGULAR
REGULAR
REGULAR
REGULAR
REGULAR
REGULAR
REGULAR
REGULAR
REGULAR
REGULAR
REGULAR
REGULAR
REGULAR
REGULAR
REGULAR
REGULAR
REGULAR
REGULAR
REGULAR
REGULAR
REGULAR
REGULAR
REGULAR
REGULAR
REGULAR
REGULAR
REGULAR
REGULAR
REGULAR
REGULAR
REGULAR
REGULAR
REGULAR
REGULAR
REGULAR
REGULAR
REGULAR
REGULAR
REGULAR
REGULAR
REGULAR
REGULAR
REGULAR
REGULAR
REGULAR
REGULAR
REGULAR
REGULAR
REGULAR
REGULAR
REGULAR
REGULAR
REGULAR
REGULAR
REGULAR
REGULAR
REGULAR
REGULAR
REGULAR
REGULAR
REGULAR
REGULAR
REGULAR
REGULAR
REGULAR
REGULAR
REGULAR
REGULAR
REGULAR
REGULAR
REGULAR
REGULAR
REGULAR
REGULAR
REGULAR
REGULAR
REGULAR
REGULAR
REGULAR
REGULAR
REGULAR
REGULAR
REGULAR
REGULAR
REGULAR
REGULAR
REGULAR
REGULAR
REGULAR
REGULAR
REGULAR
REGULAR
REGULAR
REGULAR
REGULAR
REGULAR
REGULAR
L = array1d(0..435, [1, 1, 19, 9, 12, 5, 5, 4, 5, 3, 13, 1, 5, 2, 1, 18, 5, 2, 1, 19, 8, 20, 4, 9, 23, 19, 5, 22, 9, 9, 18, 16, 1, 3, 5, 14, 1, 12, 21, 20, 3, 9, 14, 15, 5, 12, 15, 16, 1, 14, 1, 4, 9, 7, 9, 18, 2, 15, 12, 12, 15, 12, 1, 4, 1, 25, 18, 1, 14, 15, 13, 12, 21, 16, 18, 1, 1, 16, 5, 18, 1, 4, 5, 18, 5, 8, 4, 1, 4, 5, 3, 1, 20, 6, 5, 8, 18, 21, 15, 8, 19, 20, 9, 2, 1, 18, 4, 1, 14, 1, 20, 1, 12, 16, 19, 18, 5, 3, 9, 14, 12, 1, 14, 1, 3, 5, 12, 1, 4, 5, 9, 8, 1, 13, 9, 12, 5, 12, 2, 1, 19, 9, 26, 1, 14, 5, 12, 1, 3, 18, 5, 16, 8, 3, 20, 5, 4, 5, 5, 4, 11, 14, 9, 7, 1, 12, 21, 7, 1, 9, 13, 20, 1, 3, 14, 1, 8, 11, 5, 15, 8, 19, 9, 18, 1, 13, 19, 3, 18, 1, 5, 14, 9, 5, 19, 4, 12, 15, 3, 5, 12, 1, 4, 19, 11, 19, 21, 20, 4, 5, 12, 9, 1, 13, 5, 5, 1, 2, 5, 15, 13, 1, 5, 14, 5, 12, 1, 3, 19, 5, 12, 16, 1, 13, 12, 5, 1, 7, 20, 14, 9, 13, 16, 21, 20, 5, 7, 5, 2, 15, 12, 5, 11, 1, 18, 16, 15, 18, 4, 19, 11, 18, 1, 1, 12, 9, 16, 15, 16, 4, 5, 3, 18, 1, 18, 18, 2, 15, 8, 3, 5, 19, 4, 15, 13, 19, 14, 1, 15, 9, 8, 15, 3, 3, 1, 25, 4, 5, 3, 1, 18, 14, 1, 4, 1, 2, 1, 18, 3, 19, 1, 5, 16, 5, 12, 1, 2, 4, 9, 13, 9, 20, 19, 1, 18, 9, 12, 14, 1, 13, 2, 1, 3, 19, 25, 14, 1, 5, 14, 1, 26, 5, 14, 1, 13, 4, 1, 5, 12, 19, 16, 1, 3, 4, 5, 18, 20, 1, 5, 1, 18, 1, 13, 13, 1, 15, 6, 15, 18, 25, 20, 19, 5, 20, 1, 19, 20, 14, 5, 13, 5, 18, 21, 19, 1, 5, 13, 16, 9, 8, 19, 5, 12, 20, 20, 1, 2, 5, 19, 9, 15, 12, 5, 18, 5, 4, 12, 1, 21, 1, 19, 5, 9, 3, 1, 2, 1, 1, 12, 18, 1, 4, 20, 12, 5, 16, 19, 3, 12, 1, 20, 14, 15, 18, 1, 2]);
----------

%%  runtime:       19.407 (19407.913 ms)
%%  solvetime:     0.531 (531.023 ms)
%%  solutions:     1
%%  variables:     53357
%%  propagators:   69574
%%  propagations:  947829
%%  nodes:         236
%%  failures:      41
%%  restarts:      0
%%  peak depth:    174

GECODE_TUPLESET_MEM
GECODE_TUPLESET_MEM
GECODE_TUPLESET_MEM
GECODE_TUPLESET_MEM
GECODE_TUPLESET_MEM
GECODE_TUPLESET_MEM
GECODE_TUPLESET_MEM
GECODE_TUPLESET_MEM
GECODE_TUPLESET_MEM
GECODE_TUPLESET_MEM
GECODE_TUPLESET_MEM
GECODE_TUPLESET_MEM
GECODE_TUPLESET_MEM
GECODE_TUPLESET_MEM
GECODE_TUPLESET_MEM
GECODE_TUPLESET_MEM
GECODE_TUPLESET_MEM
GECODE_TUPLESET_MEM
GECODE_TUPLESET_MEM
GECODE_TUPLESET_MEM
GECODE_TUPLESET_MEM
GECODE_TUPLESET_MEM
GECODE_TUPLESET_MEM
GECODE_TUPLESET_MEM
GECODE_TUPLESET_MEM
GECODE_TUPLESET_MEM
GECODE_TUPLESET_MEM
GECODE_TUPLESET_MEM
GECODE_TUPLESET_MEM
GECODE_TUPLESET_MEM
GECODE_TUPLESET_MEM
GECODE_TUPLESET_MEM
GECODE_TUPLESET_MEM
GECODE_TUPLESET_MEM
GECODE_TUPLESET_MEM
GECODE_TUPLESET_MEM
GECODE_TUPLESET_MEM
GECODE_TUPLESET_MEM
GECODE_TUPLESET_MEM
GECODE_TUPLESET_MEM
GECODE_TUPLESET_MEM
GECODE_TUPLESET_MEM
GECODE_TUPLESET_MEM
GECODE_TUPLESET_MEM
GECODE_TUPLESET_MEM
GECODE_TUPLESET_MEM
GECODE_TUPLESET_MEM
GECODE_TUPLESET_MEM
GECODE_TUPLESET_MEM
GECODE_TUPLESET_MEM
GECODE_TUPLESET_MEM
GECODE_TUPLESET_MEM
GECODE_TUPLESET_MEM
GECODE_TUPLESET_MEM
GECODE_TUPLESET_MEM
GECODE_TUPLESET_MEM
GECODE_TUPLESET_MEM
GECODE_TUPLESET_MEM
GECODE_TUPLESET_MEM
GECODE_TUPLESET_MEM
GECODE_TUPLESET_MEM
GECODE_TUPLESET_MEM
GECODE_TUPLESET_MEM
GECODE_TUPLESET_MEM
GECODE_TUPLESET_MEM
GECODE_TUPLESET_MEM
GECODE_TUPLESET_MEM
GECODE_TUPLESET_MEM
GECODE_TUPLESET_MEM
GECODE_TUPLESET_MEM
GECODE_TUPLESET_MEM
GECODE_TUPLESET_MEM
GECODE_TUPLESET_MEM
GECODE_TUPLESET_MEM
GECODE_TUPLESET_MEM
GECODE_TUPLESET_MEM
GECODE_TUPLESET_MEM
GECODE_TUPLESET_MEM
GECODE_TUPLESET_MEM
GECODE_TUPLESET_MEM
GECODE_TUPLESET_MEM
GECODE_TUPLESET_MEM
GECODE_TUPLESET_MEM
GECODE_TUPLESET_MEM
GECODE_TUPLESET_MEM
GECODE_TUPLESET_MEM
GECODE_TUPLESET_MEM
GECODE_TUPLESET_MEM
GECODE_TUPLESET_MEM
GECODE_TUPLESET_MEM
GECODE_TUPLESET_MEM
GECODE_TUPLESET_MEM
GECODE_TUPLESET_MEM
GECODE_TUPLESET_MEM
GECODE_TUPLESET_MEM
GECODE_TUPLESET_MEM
GECODE_TUPLESET_MEM
GECODE_TUPLESET_MEM
GECODE_TUPLESET_MEM
GECODE_TUPLESET_MEM
GECODE_TUPLESET_MEM
GECODE_TUPLESET_MEM
GECODE_TUPLESET_MEM
GECODE_TUPLESET_MEM
GECODE_TUPLESET_MEM
GECODE_TUPLESET_MEM
GECODE_TUPLESET_MEM
GECODE_TUPLESET_MEM
GECODE_TUPLESET_MEM
GECODE_TUPLESET_MEM
GECODE_TUPLESET_MEM
GECODE_TUPLESET_MEM
GECODE_TUPLESET_MEM
GECODE_TUPLESET_MEM
GECODE_TUPLESET_MEM
GECODE_TUPLESET_MEM
GECODE_TUPLESET_MEM
GECODE_TUPLESET_MEM
GECODE_TUPLESET_MEM
GECODE_TUPLESET_MEM
GECODE_TUPLESET_MEM
GECODE_TUPLESET_MEM
GECODE_TUPLESET_MEM
GECODE_TUPLESET_MEM
GECODE_TUPLESET_MEM
GECODE_TUPLESET_MEM
GECODE_TUPLESET_MEM
GECODE_TUPLESET_MEM
GECODE_TUPLESET_MEM
GECODE_TUPLESET_MEM
GECODE_TUPLESET_MEM
GECODE_TUPLESET_MEM
GECODE_TUPLESET_MEM
GECODE_TUPLESET_MEM
GECODE_TUPLESET_MEM
GECODE_TUPLESET_MEM
GECODE_TUPLESET_MEM
GECODE_TUPLESET_MEM
GECODE_TUPLESET_MEM
GECODE_TUPLESET_MEM
GECODE_TUPLESET_MEM
GECODE_TUPLESET_MEM
GECODE_TUPLESET_MEM
GECODE_TUPLESET_MEM
GECODE_TUPLESET_MEM
GECODE_TUPLESET_MEM
GECODE_TUPLESET_MEM
GECODE_TUPLESET_MEM
GECODE_TUPLESET_MEM
GECODE_TUPLESET_MEM
GECODE_TUPLESET_MEM
GECODE_TUPLESET_MEM
GECODE_TUPLESET_MEM
GECODE_TUPLESET_MEM
GECODE_TUPLESET_MEM
GECODE_TUPLESET_MEM
GECODE_TUPLESET_MEM
GECODE_TUPLESET_MEM
GECODE_TUPLESET_MEM
GECODE_TUPLESET_MEM
GECODE_TUPLESET_MEM
GECODE_TUPLESET_MEM
GECODE_TUPLESET_MEM
GECODE_TUPLESET_MEM
GECODE_TUPLESET_MEM
GECODE_TUPLESET_MEM
GECODE_TUPLESET_MEM
GECODE_TUPLESET_MEM
GECODE_TUPLESET_MEM
GECODE_TUPLESET_MEM
GECODE_TUPLESET_MEM
GECODE_TUPLESET_MEM
GECODE_TUPLESET_MEM
GECODE_TUPLESET_MEM
GECODE_TUPLESET_MEM
GECODE_TUPLESET_MEM
GECODE_TUPLESET_MEM
GECODE_TUPLESET_MEM
GECODE_TUPLESET_MEM
GECODE_TUPLESET_MEM
GECODE_TUPLESET_MEM
GECODE_TUPLESET_MEM
L = array1d(0..435, [1, 2, 1, 18, 15, 14, 15, 4, 4, 19, 4, 1, 3, 3, 1, 8, 1, 13, 1, 14, 15, 13, 1, 8, 1, 16, 15, 15, 8, 1, 2, 5, 1, 13, 1, 13, 5, 2, 1, 5, 19, 1, 22, 15, 14, 1, 18, 15, 12, 1, 12, 15, 12, 12, 15, 2, 18, 9, 7, 9, 4, 1, 21, 20, 5, 3, 1, 13, 5, 13, 2, 5, 18, 20, 5, 9, 18, 5, 4, 9, 7, 14, 9, 14, 5, 22, 5, 8, 2, 1, 19, 20, 1, 2, 2, 25, 7, 5, 14, 5, 2, 1, 4, 7, 1, 12, 1, 9, 12, 1, 14, 1, 4, 5, 18, 5, 20, 8, 5, 12, 2, 1, 4, 5, 3, 1, 12, 12, 2, 5, 1, 4, 12, 5, 1, 18, 19, 1, 12, 1, 4, 15, 7, 12, 5, 15, 12, 13, 19, 20, 5, 4, 13, 1, 12, 20, 5, 4, 1, 13, 6, 15, 18, 18, 1, 9, 19, 5, 1, 12, 1, 1, 12, 12, 1, 18, 13, 19, 19, 1, 18, 1, 7, 9, 12, 1, 2, 18, 1, 4, 13, 1, 3, 18, 15, 1, 3, 9, 4, 2, 5, 4, 5, 16, 9, 14, 20, 15, 16, 12, 1, 20, 5, 1, 21, 3, 1, 12, 9, 2, 1, 14, 18, 1, 12, 12, 9, 5, 19, 12, 21, 18, 5, 19, 20, 8, 1, 4, 14, 1, 2, 19, 16, 5, 5, 11, 19, 1, 18, 11, 19, 19, 8, 1, 4, 23, 1, 11, 5, 1, 12, 7, 1, 8, 1, 4, 20, 9, 5, 2, 5, 9, 7, 5, 1, 20, 5, 20, 8, 1, 9, 11, 9, 12, 15, 8, 1, 4, 18, 9, 1, 14, 13, 1, 4, 5, 2, 5, 5, 20, 19, 1, 14, 20, 5, 8, 1, 14, 7, 9, 2, 9, 19, 12, 1, 13, 5, 8, 1, 7, 1, 18, 1, 3, 13, 5, 19, 1, 3, 5, 15, 1, 11, 19, 3, 1, 2, 21, 18, 5, 1, 6, 1, 7, 19, 2, 12, 1, 2, 19, 1, 12, 1, 1, 13, 19, 18, 1, 14, 2, 1, 19, 5, 8, 1, 12, 6, 2, 1, 3, 11, 19, 16, 9, 20, 1, 16, 1, 12, 1, 3, 8, 9, 3, 15, 12, 1, 9, 12, 12, 9, 20, 5, 18, 1, 3, 25, 12, 5, 7, 1, 20, 5, 19, 8, 5, 5, 14, 14, 15, 15, 14, 12, 21, 3, 18, 5, 19, 5, 23, 5, 4, 13, 9, 19, 4, 15, 7, 5, 20, 19, 11, 14, 5, 1, 4]);
----------

%%  runtime:       2.458 (2458.359 ms)
%%  solvetime:     0.491 (491.387 ms)
%%  solutions:     1
%%  variables:     53357
%%  propagators:   69574
%%  propagations:  833378
%%  nodes:         266
%%  failures:      44
%%  restarts:      0
%%  peak depth:    194

GECODE_TUPLESET_SPEED
GECODE_TUPLESET_SPEED
GECODE_TUPLESET_SPEED
GECODE_TUPLESET_SPEED
GECODE_TUPLESET_SPEED
GECODE_TUPLESET_SPEED
GECODE_TUPLESET_SPEED
GECODE_TUPLESET_SPEED
GECODE_TUPLESET_SPEED
GECODE_TUPLESET_SPEED
GECODE_TUPLESET_SPEED
GECODE_TUPLESET_SPEED
GECODE_TUPLESET_SPEED
GECODE_TUPLESET_SPEED
GECODE_TUPLESET_SPEED
GECODE_TUPLESET_SPEED
GECODE_TUPLESET_SPEED
GECODE_TUPLESET_SPEED
GECODE_TUPLESET_SPEED
GECODE_TUPLESET_SPEED
GECODE_TUPLESET_SPEED
GECODE_TUPLESET_SPEED
GECODE_TUPLESET_SPEED
GECODE_TUPLESET_SPEED
GECODE_TUPLESET_SPEED
GECODE_TUPLESET_SPEED
GECODE_TUPLESET_SPEED
GECODE_TUPLESET_SPEED
GECODE_TUPLESET_SPEED
GECODE_TUPLESET_SPEED
GECODE_TUPLESET_SPEED
GECODE_TUPLESET_SPEED
GECODE_TUPLESET_SPEED
GECODE_TUPLESET_SPEED
GECODE_TUPLESET_SPEED
GECODE_TUPLESET_SPEED
GECODE_TUPLESET_SPEED
GECODE_TUPLESET_SPEED
GECODE_TUPLESET_SPEED
GECODE_TUPLESET_SPEED
GECODE_TUPLESET_SPEED
GECODE_TUPLESET_SPEED
GECODE_TUPLESET_SPEED
GECODE_TUPLESET_SPEED
GECODE_TUPLESET_SPEED
GECODE_TUPLESET_SPEED
GECODE_TUPLESET_SPEED
GECODE_TUPLESET_SPEED
GECODE_TUPLESET_SPEED
GECODE_TUPLESET_SPEED
GECODE_TUPLESET_SPEED
GECODE_TUPLESET_SPEED
GECODE_TUPLESET_SPEED
GECODE_TUPLESET_SPEED
GECODE_TUPLESET_SPEED
GECODE_TUPLESET_SPEED
GECODE_TUPLESET_SPEED
GECODE_TUPLESET_SPEED
GECODE_TUPLESET_SPEED
GECODE_TUPLESET_SPEED
GECODE_TUPLESET_SPEED
GECODE_TUPLESET_SPEED
GECODE_TUPLESET_SPEED
GECODE_TUPLESET_SPEED
GECODE_TUPLESET_SPEED
GECODE_TUPLESET_SPEED
GECODE_TUPLESET_SPEED
GECODE_TUPLESET_SPEED
GECODE_TUPLESET_SPEED
GECODE_TUPLESET_SPEED
GECODE_TUPLESET_SPEED
GECODE_TUPLESET_SPEED
GECODE_TUPLESET_SPEED
GECODE_TUPLESET_SPEED
GECODE_TUPLESET_SPEED
GECODE_TUPLESET_SPEED
GECODE_TUPLESET_SPEED
GECODE_TUPLESET_SPEED
GECODE_TUPLESET_SPEED
GECODE_TUPLESET_SPEED
GECODE_TUPLESET_SPEED
GECODE_TUPLESET_SPEED
GECODE_TUPLESET_SPEED
GECODE_TUPLESET_SPEED
GECODE_TUPLESET_SPEED
GECODE_TUPLESET_SPEED
GECODE_TUPLESET_SPEED
GECODE_TUPLESET_SPEED
GECODE_TUPLESET_SPEED
GECODE_TUPLESET_SPEED
GECODE_TUPLESET_SPEED
GECODE_TUPLESET_SPEED
GECODE_TUPLESET_SPEED
GECODE_TUPLESET_SPEED
GECODE_TUPLESET_SPEED
GECODE_TUPLESET_SPEED
GECODE_TUPLESET_SPEED
GECODE_TUPLESET_SPEED
GECODE_TUPLESET_SPEED
GECODE_TUPLESET_SPEED
GECODE_TUPLESET_SPEED
GECODE_TUPLESET_SPEED
GECODE_TUPLESET_SPEED
GECODE_TUPLESET_SPEED
GECODE_TUPLESET_SPEED
GECODE_TUPLESET_SPEED
GECODE_TUPLESET_SPEED
GECODE_TUPLESET_SPEED
GECODE_TUPLESET_SPEED
GECODE_TUPLESET_SPEED
GECODE_TUPLESET_SPEED
GECODE_TUPLESET_SPEED
GECODE_TUPLESET_SPEED
GECODE_TUPLESET_SPEED
GECODE_TUPLESET_SPEED
GECODE_TUPLESET_SPEED
GECODE_TUPLESET_SPEED
GECODE_TUPLESET_SPEED
GECODE_TUPLESET_SPEED
GECODE_TUPLESET_SPEED
GECODE_TUPLESET_SPEED
GECODE_TUPLESET_SPEED
GECODE_TUPLESET_SPEED
GECODE_TUPLESET_SPEED
GECODE_TUPLESET_SPEED
GECODE_TUPLESET_SPEED
GECODE_TUPLESET_SPEED
GECODE_TUPLESET_SPEED
GECODE_TUPLESET_SPEED
GECODE_TUPLESET_SPEED
GECODE_TUPLESET_SPEED
GECODE_TUPLESET_SPEED
GECODE_TUPLESET_SPEED
GECODE_TUPLESET_SPEED
GECODE_TUPLESET_SPEED
GECODE_TUPLESET_SPEED
GECODE_TUPLESET_SPEED
GECODE_TUPLESET_SPEED
GECODE_TUPLESET_SPEED
GECODE_TUPLESET_SPEED
GECODE_TUPLESET_SPEED
GECODE_TUPLESET_SPEED
GECODE_TUPLESET_SPEED
GECODE_TUPLESET_SPEED
GECODE_TUPLESET_SPEED
GECODE_TUPLESET_SPEED
GECODE_TUPLESET_SPEED
GECODE_TUPLESET_SPEED
GECODE_TUPLESET_SPEED
GECODE_TUPLESET_SPEED
GECODE_TUPLESET_SPEED
GECODE_TUPLESET_SPEED
GECODE_TUPLESET_SPEED
GECODE_TUPLESET_SPEED
GECODE_TUPLESET_SPEED
GECODE_TUPLESET_SPEED
GECODE_TUPLESET_SPEED
GECODE_TUPLESET_SPEED
GECODE_TUPLESET_SPEED
GECODE_TUPLESET_SPEED
GECODE_TUPLESET_SPEED
GECODE_TUPLESET_SPEED
GECODE_TUPLESET_SPEED
GECODE_TUPLESET_SPEED
GECODE_TUPLESET_SPEED
GECODE_TUPLESET_SPEED
GECODE_TUPLESET_SPEED
GECODE_TUPLESET_SPEED
GECODE_TUPLESET_SPEED
GECODE_TUPLESET_SPEED
GECODE_TUPLESET_SPEED
GECODE_TUPLESET_SPEED
GECODE_TUPLESET_SPEED
GECODE_TUPLESET_SPEED
GECODE_TUPLESET_SPEED
GECODE_TUPLESET_SPEED
GECODE_TUPLESET_SPEED
GECODE_TUPLESET_SPEED
GECODE_TUPLESET_SPEED
GECODE_TUPLESET_SPEED
GECODE_TUPLESET_SPEED
GECODE_TUPLESET_SPEED
L = array1d(0..435, [1, 2, 1, 18, 15, 14, 15, 4, 4, 19, 4, 1, 3, 3, 1, 8, 1, 13, 1, 14, 15, 13, 1, 8, 1, 16, 15, 15, 8, 1, 2, 5, 1, 13, 1, 13, 5, 2, 1, 5, 19, 1, 22, 15, 14, 1, 18, 15, 12, 1, 12, 15, 12, 12, 15, 2, 18, 9, 7, 9, 4, 1, 21, 20, 5, 3, 1, 13, 5, 13, 2, 5, 18, 20, 5, 9, 18, 5, 4, 9, 7, 14, 9, 14, 5, 22, 5, 8, 2, 1, 19, 20, 1, 2, 2, 25, 7, 5, 14, 5, 2, 1, 4, 7, 1, 12, 1, 9, 12, 1, 14, 1, 4, 5, 18, 5, 20, 8, 5, 12, 2, 1, 4, 5, 3, 1, 12, 12, 2, 5, 1, 4, 12, 5, 1, 18, 19, 1, 12, 1, 4, 15, 7, 12, 5, 15, 12, 13, 19, 20, 5, 4, 13, 1, 12, 20, 5, 4, 1, 13, 6, 15, 18, 18, 1, 9, 19, 5, 1, 12, 1, 1, 12, 12, 1, 18, 13, 19, 19, 1, 18, 1, 7, 9, 12, 1, 2, 18, 1, 4, 13, 1, 3, 18, 15, 1, 3, 9, 4, 2, 5, 4, 5, 16, 9, 14, 20, 15, 16, 12, 1, 20, 5, 1, 21, 3, 1, 12, 9, 2, 1, 14, 18, 1, 12, 12, 9, 5, 19, 12, 21, 18, 5, 19, 20, 8, 1, 4, 14, 1, 2, 19, 16, 5, 5, 11, 19, 1, 18, 11, 19, 19, 8, 1, 4, 23, 1, 11, 5, 1, 12, 7, 1, 8, 1, 4, 20, 9, 5, 2, 5, 9, 7, 5, 1, 20, 5, 20, 8, 1, 9, 11, 9, 12, 15, 8, 1, 4, 18, 9, 1, 14, 13, 1, 4, 5, 2, 5, 5, 20, 19, 1, 14, 20, 5, 8, 1, 14, 7, 9, 2, 9, 19, 12, 1, 13, 5, 8, 1, 7, 1, 18, 1, 3, 13, 5, 19, 1, 3, 5, 15, 1, 11, 19, 3, 1, 2, 21, 18, 5, 1, 6, 1, 7, 19, 2, 12, 1, 2, 19, 1, 12, 1, 1, 13, 19, 18, 1, 14, 2, 1, 19, 5, 8, 1, 12, 6, 2, 1, 3, 11, 19, 16, 9, 20, 1, 16, 1, 12, 1, 3, 8, 9, 3, 15, 12, 1, 9, 12, 12, 9, 20, 5, 18, 1, 3, 25, 12, 5, 7, 1, 20, 5, 19, 8, 5, 5, 14, 14, 15, 15, 14, 12, 21, 3, 18, 5, 19, 5, 23, 5, 4, 13, 9, 19, 4, 15, 7, 5, 20, 19, 11, 14, 5, 1, 4]);
----------

%%  runtime:       2.548 (2548.985 ms)
%%  solvetime:     0.616 (616.532 ms)
%%  solutions:     1
%%  variables:     53357
%%  propagators:   69574
%%  propagations:  834269
%%  nodes:         266
%%  failures:      44
%%  restarts:      0
%%  peak depth:    194

COMPACT_TABLE
COMPACT_TABLE
COMPACT_TABLE
COMPACT_TABLE
COMPACT_TABLE
COMPACT_TABLE
COMPACT_TABLE
COMPACT_TABLE
COMPACT_TABLE
COMPACT_TABLE
COMPACT_TABLE
COMPACT_TABLE
COMPACT_TABLE
COMPACT_TABLE
COMPACT_TABLE
COMPACT_TABLE
COMPACT_TABLE
COMPACT_TABLE
COMPACT_TABLE
COMPACT_TABLE
COMPACT_TABLE
COMPACT_TABLE
COMPACT_TABLE
COMPACT_TABLE
COMPACT_TABLE
COMPACT_TABLE
COMPACT_TABLE
COMPACT_TABLE
COMPACT_TABLE
COMPACT_TABLE
COMPACT_TABLE
COMPACT_TABLE
COMPACT_TABLE
COMPACT_TABLE
COMPACT_TABLE
COMPACT_TABLE
COMPACT_TABLE
COMPACT_TABLE
COMPACT_TABLE
COMPACT_TABLE
COMPACT_TABLE
COMPACT_TABLE
COMPACT_TABLE
COMPACT_TABLE
COMPACT_TABLE
COMPACT_TABLE
COMPACT_TABLE
COMPACT_TABLE
COMPACT_TABLE
COMPACT_TABLE
COMPACT_TABLE
COMPACT_TABLE
COMPACT_TABLE
COMPACT_TABLE
COMPACT_TABLE
COMPACT_TABLE
COMPACT_TABLE
COMPACT_TABLE
COMPACT_TABLE
COMPACT_TABLE
COMPACT_TABLE
COMPACT_TABLE
COMPACT_TABLE
COMPACT_TABLE
COMPACT_TABLE
COMPACT_TABLE
COMPACT_TABLE
COMPACT_TABLE
COMPACT_TABLE
COMPACT_TABLE
COMPACT_TABLE
COMPACT_TABLE
COMPACT_TABLE
COMPACT_TABLE
COMPACT_TABLE
COMPACT_TABLE
COMPACT_TABLE
COMPACT_TABLE
COMPACT_TABLE
COMPACT_TABLE
COMPACT_TABLE
COMPACT_TABLE
COMPACT_TABLE
COMPACT_TABLE
COMPACT_TABLE
COMPACT_TABLE
COMPACT_TABLE
COMPACT_TABLE
COMPACT_TABLE
COMPACT_TABLE
COMPACT_TABLE
COMPACT_TABLE
COMPACT_TABLE
COMPACT_TABLE
COMPACT_TABLE
COMPACT_TABLE
COMPACT_TABLE
COMPACT_TABLE
COMPACT_TABLE
COMPACT_TABLE
COMPACT_TABLE
COMPACT_TABLE
COMPACT_TABLE
COMPACT_TABLE
COMPACT_TABLE
COMPACT_TABLE
COMPACT_TABLE
COMPACT_TABLE
COMPACT_TABLE
COMPACT_TABLE
COMPACT_TABLE
COMPACT_TABLE
COMPACT_TABLE
COMPACT_TABLE
COMPACT_TABLE
COMPACT_TABLE
COMPACT_TABLE
COMPACT_TABLE
COMPACT_TABLE
COMPACT_TABLE
COMPACT_TABLE
COMPACT_TABLE
COMPACT_TABLE
COMPACT_TABLE
COMPACT_TABLE
COMPACT_TABLE
COMPACT_TABLE
COMPACT_TABLE
COMPACT_TABLE
COMPACT_TABLE
COMPACT_TABLE
COMPACT_TABLE
COMPACT_TABLE
COMPACT_TABLE
COMPACT_TABLE
COMPACT_TABLE
COMPACT_TABLE
COMPACT_TABLE
COMPACT_TABLE
COMPACT_TABLE
COMPACT_TABLE
COMPACT_TABLE
COMPACT_TABLE
COMPACT_TABLE
COMPACT_TABLE
COMPACT_TABLE
COMPACT_TABLE
COMPACT_TABLE
COMPACT_TABLE
COMPACT_TABLE
COMPACT_TABLE
COMPACT_TABLE
COMPACT_TABLE
COMPACT_TABLE
COMPACT_TABLE
COMPACT_TABLE
COMPACT_TABLE
COMPACT_TABLE
COMPACT_TABLE
COMPACT_TABLE
COMPACT_TABLE
COMPACT_TABLE
COMPACT_TABLE
COMPACT_TABLE
COMPACT_TABLE
COMPACT_TABLE
COMPACT_TABLE
COMPACT_TABLE
COMPACT_TABLE
COMPACT_TABLE
COMPACT_TABLE
COMPACT_TABLE
COMPACT_TABLE
COMPACT_TABLE
COMPACT_TABLE
COMPACT_TABLE
COMPACT_TABLE
COMPACT_TABLE
COMPACT_TABLE
COMPACT_TABLE
COMPACT_TABLE
COMPACT_TABLE
L = array1d(0..435, [1, 2, 1, 18, 15, 14, 15, 4, 4, 19, 4, 1, 3, 3, 1, 8, 1, 13, 1, 14, 15, 13, 1, 8, 1, 16, 15, 15, 8, 1, 2, 5, 1, 13, 1, 13, 5, 2, 1, 5, 19, 1, 22, 15, 14, 1, 18, 15, 12, 1, 12, 15, 12, 12, 15, 2, 18, 9, 7, 9, 4, 1, 21, 20, 5, 3, 1, 13, 5, 13, 2, 5, 18, 20, 5, 9, 18, 5, 4, 9, 7, 14, 9, 14, 5, 22, 5, 8, 2, 1, 19, 20, 1, 2, 2, 25, 7, 5, 14, 5, 2, 1, 4, 7, 1, 12, 1, 9, 12, 1, 14, 1, 4, 5, 18, 5, 20, 8, 5, 12, 2, 1, 4, 5, 3, 1, 12, 12, 2, 5, 1, 4, 12, 5, 1, 18, 19, 1, 12, 1, 4, 15, 7, 12, 5, 15, 12, 13, 19, 20, 5, 4, 13, 1, 12, 20, 5, 4, 1, 13, 6, 15, 18, 18, 1, 9, 19, 5, 1, 12, 1, 1, 12, 12, 1, 18, 13, 19, 19, 1, 18, 1, 7, 9, 12, 1, 2, 18, 1, 4, 13, 1, 3, 18, 15, 1, 3, 9, 4, 2, 5, 4, 5, 16, 9, 14, 20, 15, 16, 12, 1, 20, 5, 1, 21, 3, 1, 12, 9, 2, 1, 14, 18, 1, 12, 12, 9, 5, 19, 12, 21, 18, 5, 19, 20, 8, 1, 4, 14, 1, 2, 19, 16, 5, 5, 11, 19, 1, 18, 11, 19, 19, 8, 1, 4, 23, 1, 11, 5, 1, 12, 7, 1, 8, 1, 4, 20, 9, 5, 2, 5, 9, 7, 5, 1, 20, 5, 20, 8, 1, 9, 11, 9, 12, 15, 8, 1, 4, 18, 9, 1, 14, 13, 1, 4, 5, 2, 5, 5, 20, 19, 1, 14, 20, 5, 8, 1, 14, 7, 9, 2, 9, 19, 12, 1, 13, 5, 8, 1, 7, 1, 18, 1, 3, 13, 5, 19, 1, 3, 5, 15, 1, 11, 19, 3, 1, 2, 21, 18, 5, 1, 6, 1, 7, 19, 2, 12, 1, 2, 19, 1, 12, 1, 1, 13, 19, 18, 1, 14, 2, 1, 19, 5, 8, 1, 12, 6, 2, 1, 3, 11, 19, 16, 9, 20, 1, 16, 1, 12, 1, 3, 8, 9, 3, 15, 12, 1, 9, 12, 12, 9, 20, 5, 18, 1, 3, 25, 12, 5, 7, 1, 20, 5, 19, 8, 5, 5, 14, 14, 15, 15, 14, 12, 21, 3, 18, 5, 19, 5, 23, 5, 4, 13, 9, 19, 4, 15, 7, 5, 20, 19, 11, 14, 5, 1, 4]);
----------

%%  runtime:       3.051 (3051.921 ms)
%%  solvetime:     0.448 (448.869 ms)
%%  solutions:     1
%%  variables:     53357
%%  propagators:   69574
%%  propagations:  833248
%%  nodes:         266
%%  failures:      44
%%  restarts:      0
%%  peak depth:    194

